# 99864
param n := 25;
param s := 1;
set E :=  (0,1) (0,2) (0,6) (1,13) (1,21) (2,3) (2,20) (3,23) (4,24) (5,8) (5,16) (5,22) (6,13) (6,15) (6,19) (7,12) (9,13) (9,24) (10,21) (11,18) (12,18) (12,21) (13,16) (13,17) (13,20) (14,22) (16,17) (16,23) (17,18) (17,22) (19,20) (20,21) (22,23) (23,24);
